Gurobi Optimizer version 9.1.2 build v9.1.2rc0 (linux64)
Thread count: 36 physical cores, 72 logical processors, using up to 32 threads
Optimize a model with 12 rows, 57 columns and 590 nonzeros
Model fingerprint: 0xf32eec78
Model has 47 quadratic constraints
Coefficient statistics:
  Matrix range     [2e-05, 3e+00]
  QMatrix range    [1e+00, 1e+00]
  QLMatrix range   [1e+00, 1e+00]
  Objective range  [8e-03, 7e-01]
  Bounds range     [1e+00, 1e+00]
  RHS range        [1e+00, 1e+00]
Presolve removed 9 rows and 0 columns

Continuous model is non-convex -- solving as a MIP.

Presolve removed 9 rows and 0 columns
Presolve time: 0.00s
Presolved: 189 rows, 57 columns, 443 nonzeros
Presolved model has 47 bilinear constraint(s)
Variable types: 57 continuous, 0 integer (0 binary)

Root relaxation: objective -1.743721e+00, 44 iterations, 0.00 seconds

    Nodes    |    Current Node    |     Objective Bounds      |     Work
 Expl Unexpl |  Obj  Depth IntInf | Incumbent    BestBd   Gap | It/Node Time

     0     0   -1.74372    0   38          -   -1.74372      -     -    0s
H    0     0                       0.6147548   -1.74372   384%     -    0s
     0     0   -1.64739    0    1    0.61475   -1.64739   368%     -    0s
H    0     0                      -1.6450460   -1.64739  0.14%     -    0s
     0     0     cutoff    0        -1.64505   -1.64505  0.00%     -    0s

Cutting planes:
  RLT: 25
  BQP: 3

Explored 1 nodes (76 simplex iterations) in 0.01 seconds
Thread count was 32 (of 72 available processors)

Solution count 2: -1.64505 0.614755 
No other solutions better than -1.64505

Optimal solution found (tolerance 1.00e-04)
Best objective -1.645045978473e+00, best bound -1.645045978473e+00, gap 0.0000%

User-callback calls 78, time in user-callback 0.00 sec
Gurobi Optimizer version 9.1.2 build v9.1.2rc0 (linux64)
Thread count: 36 physical cores, 72 logical processors, using up to 32 threads
Optimize a model with 60 rows, 300 columns and 15500 nonzeros
Model fingerprint: 0xbf825dae
Model has 250 quadratic constraints
Coefficient statistics:
  Matrix range     [1e-06, 4e+00]
  QMatrix range    [1e+00, 1e+00]
  QLMatrix range   [1e+00, 1e+00]
  Objective range  [3e-04, 1e+00]
  Bounds range     [1e+00, 1e+00]
  RHS range        [1e+00, 1e+00]
Presolve removed 11 rows and 0 columns

Continuous model is non-convex -- solving as a MIP.

Presolve removed 11 rows and 0 columns
Presolve time: 0.01s
Presolved: 1049 rows, 300 columns, 14161 nonzeros
Presolved model has 250 bilinear constraint(s)
Variable types: 300 continuous, 0 integer (0 binary)

Root relaxation: objective -2.029273e+01, 343 iterations, 0.02 seconds

    Nodes    |    Current Node    |     Objective Bounds      |     Work
 Expl Unexpl |  Obj  Depth IntInf | Incumbent    BestBd   Gap | It/Node Time

     0     0  -20.29273    0  204          -  -20.29273      -     -    0s
H    0     0                      -5.4645752  -20.29273   271%     -    0s
     0     0  -18.50077    0  186   -5.46458  -18.50077   239%     -    0s
H    0     0                      -9.1654314  -18.50077   102%     -    0s
     0     0  -18.50060    0  186   -9.16543  -18.50060   102%     -    0s
     0     0  -18.28035    0  142   -9.16543  -18.28035  99.4%     -    0s
     0     0  -18.28021    0  142   -9.16543  -18.28021  99.4%     -    0s
     0     0  -18.26784    0  133   -9.16543  -18.26784  99.3%     -    0s
H    0     0                     -11.2836916  -18.26784  61.9%     -    0s
     0     0  -18.26751    0  124  -11.28369  -18.26751  61.9%     -    0s
H    0     0                     -11.5082209  -18.26751  58.7%     -    0s
     0     0  -18.26751    0  124  -11.50822  -18.26751  58.7%     -    0s
H    0     0                     -15.3465380  -18.26751  19.0%     -    0s
H    0     0                     -15.8030752  -18.26751  15.6%     -    0s
H    0     0                     -15.8174264  -18.26751  15.5%     -    0s
     0     2  -18.26751    0  124  -15.81743  -18.26751  15.5%     -    0s
* 1921  1700              35     -15.8182204  -17.50835  10.7%  46.9    1s
* 1923  1700              35     -15.8182271  -17.50835  10.7%  46.8    1s
* 2051  1842              52     -16.3435868  -17.50835  7.13%  45.3    2s
* 2276  1807              62     -16.6818901  -17.50417  4.93%  43.9    2s
* 2297  1807              57     -16.7741480  -17.50417  4.35%  43.9    2s
* 2298  1807              57     -16.7741493  -17.50417  4.35%  43.9    2s
* 4536   845              84     -16.9003277  -17.50417  3.57%  56.3    4s
* 5481   814              55     -16.9003915  -17.50417  3.57%  57.3    4s
* 5482   814              55     -16.9003918  -17.50417  3.57%  57.3    4s
* 5485   814              56     -16.9004850  -17.50417  3.57%  57.2    4s
* 5675   906              57     -16.9004889  -17.50417  3.57%  56.6    4s
* 5688   906              74     -16.9920896  -17.50417  3.01%  56.5    4s
* 5690   906              75     -16.9920896  -17.50417  3.01%  56.5    4s
* 5692   906              76     -16.9920897  -17.50417  3.01%  56.5    4s
* 5693   906              76     -16.9920902  -17.50417  3.01%  56.5    4s
* 6158   993              74     -17.0253888  -17.50417  2.81%  56.5    4s
* 6681  1136              64     -17.0360284  -17.50417  2.75%  55.9    4s
* 6757  1136              72     -17.0363819  -17.50417  2.75%  55.7    4s
* 7111  1118              73     -17.0377404  -17.46783  2.52%  54.6    4s
  7489  1134     cutoff   28       -17.03774  -17.46783  2.52%  53.8    5s
* 7623  1134              66     -17.0377442  -17.46783  2.52%  53.4    5s
* 7624  1134              66     -17.0377444  -17.46783  2.52%  53.4    5s
* 7830  1239              59     -17.0407368  -17.46783  2.51%  52.8    5s
* 8102  1239              70     -17.0475611  -17.46783  2.47%  51.7    5s
* 8103  1239              70     -17.0475625  -17.46783  2.47%  51.7    5s
* 8265  1166              68     -17.0484154  -17.46783  2.46%  51.3    5s
* 8266  1166              67     -17.0484184  -17.46783  2.46%  51.3    5s
* 8352  1166              67     -17.0495894  -17.46783  2.45%  50.9    5s
* 8749   845              59     -17.0496705  -17.29071  1.41%  49.4    5s
* 9101   845              61     -17.0496755  -17.29071  1.41%  47.7    5s
* 9370   767              59     -17.0496775  -17.29071  1.41%  46.8    5s
* 9426   767              59     -17.0498417  -17.29071  1.41%  46.6    5s
* 9427   767              59     -17.0498429  -17.29071  1.41%  46.6    5s
* 9749   644              62     -17.0498454  -17.24035  1.12%  45.6    5s
* 9750   644              62     -17.0499150  -17.24035  1.12%  45.6    5s
*10141   644              62     -17.0499153  -17.24035  1.12%  44.2    5s
*10183   644              60     -17.0500097  -17.24035  1.12%  44.0    5s
*10364   666              57     -17.0500198  -17.24035  1.12%  43.7    5s
*10365   666              57     -17.0500198  -17.24035  1.12%  43.7    5s
*10369   666              57     -17.0500225  -17.24035  1.12%  43.7    5s
*10472   666              59     -17.0500760  -17.24035  1.12%  43.4    5s
*10474   666              60     -17.0501595  -17.24035  1.12%  43.4    5s
*10475   666              60     -17.0501595  -17.24035  1.12%  43.4    5s
*10483   666              62     -17.0501683  -17.24035  1.12%  43.4    5s
*10486   666              62     -17.0501684  -17.24035  1.12%  43.4    5s
*10490   666              57     -17.0502772  -17.24035  1.11%  43.4    5s
*10499   666              57     -17.0502775  -17.24035  1.11%  43.3    5s
*10683   861              65     -17.0505368  -17.24035  1.11%  42.8    5s
*10684   861              65     -17.0505460  -17.24035  1.11%  42.8    5s
*10814   861              74     -17.0513620  -17.24035  1.11%  42.5    5s
*10926   861              54     -17.0515742  -17.24035  1.11%  42.2    5s
*10990   861              76     -17.0517859  -17.24035  1.11%  42.0    5s
*11119  1088              66     -17.0522801  -17.18334  0.77%  41.8    5s
*11194  1088              65     -17.0545763  -17.18334  0.76%  41.6    5s
*11195  1088              65     -17.0545763  -17.18334  0.76%  41.6    5s
*11231  1088              63     -17.0546035  -17.18334  0.75%  41.5    5s
*11232  1088              63     -17.0546055  -17.18334  0.75%  41.5    5s
*11256  1088              70     -17.0546454  -17.18334  0.75%  41.4    5s
*11841  1360              64     -17.0577328  -17.16100  0.61%  40.1    5s
*11842  1360              64     -17.0579105  -17.16100  0.60%  40.1    5s
*11848  1360              65     -17.0579230  -17.16100  0.60%  40.0    5s
*12273  1604              71     -17.0591049  -17.16100  0.60%  39.1    5s
*12308  1604              59     -17.0607207  -17.16100  0.59%  39.0    5s
*12579  1604              63     -17.0666876  -17.16100  0.55%  38.4    5s
*12962   983              65     -17.0666935  -17.10997  0.25%  37.5    5s
*12978   983              62     -17.0673313  -17.10997  0.25%  37.5    5s
*13898   878              58     -17.0673466  -17.10321  0.21%  35.6    6s
*13899   878              58     -17.0673512  -17.10321  0.21%  35.6    6s
*13932   878              64     -17.0673718  -17.10321  0.21%  35.6    6s
*13974   878              62     -17.0674787  -17.10321  0.21%  35.5    6s
*14183   878              59     -17.0675588  -17.10321  0.21%  35.0    6s
*14188   878              60     -17.0675636  -17.10321  0.21%  35.0    6s
*14276   878              55     -17.0680618  -17.10321  0.21%  34.8    6s
*14277   878              55     -17.0680636  -17.10321  0.21%  34.8    6s
*14324  1052              57     -17.0722218  -17.10200  0.17%  34.7    6s
*14328  1052              58     -17.0722225  -17.10200  0.17%  34.7    6s
*14929  1052              58     -17.0727923  -17.10200  0.17%  33.7    6s
*15238  1234              64     -17.0728119  -17.09784  0.15%  33.3    6s
*15315  1234              58     -17.0740101  -17.09784  0.14%  33.1    6s
*15355  1234              63     -17.0747365  -17.09784  0.14%  33.0    6s
*15586  1537              66     -17.0760284  -17.08011  0.02%  32.7    6s
*15587  1537              66     -17.0760328  -17.08011  0.02%  32.7    6s
*15590  1537              67     -17.0761046  -17.08011  0.02%  32.6    6s
*15591  1537              67     -17.0761121  -17.08011  0.02%  32.6    6s
*15592  1537              66     -17.0761146  -17.08011  0.02%  32.6    6s
*15734  1537              61     -17.0782411  -17.08011  0.01%  32.4    6s
*16303  1635              69     -17.0790022  -17.08006  0.01%  31.5    6s
*16304  1635              69     -17.0790061  -17.08006  0.01%  31.5    6s
*16305  1635              68     -17.0790485  -17.08006  0.01%  31.5    6s
*16420  1635              70     -17.0791620  -17.07995  0.00%  31.3    6s
*16446  1635              70     -17.0791977  -17.07995  0.00%  31.3    6s
*16511  1635              66     -17.0792817  -17.07995  0.00%  31.2    6s
*16518  1635              69     -17.0792895  -17.07995  0.00%  31.2    6s
*16520  1635              70     -17.0792901  -17.07995  0.00%  31.2    6s
*16625  1635              68     -17.0796493  -17.07995  0.00%  31.0    6s
*16652  1635              66     -17.0796819  -17.07995  0.00%  31.0    6s
*16653  1635              66     -17.0796832  -17.07995  0.00%  30.9    6s
*16727  1635              67     -17.0798645  -17.07995  0.00%  30.8    6s
*16728  1635              68     -17.0798671  -17.07995  0.00%  30.8    6s

Explored 17237 nodes (518145 simplex iterations) in 6.42 seconds
Thread count was 32 (of 72 available processors)

Solution count 10: -17.0799 -17.0799 -17.0797 ... -17.079

Optimal solution found (tolerance 1.00e-04)
Best objective -1.707986708408e+01, best bound -1.707995327453e+01, gap 0.0005%

User-callback calls 35472, time in user-callback 0.01 sec



objective value: -17.079867084079297
objective bound: -17.079953274529515
x_opt: [0.0, 1.0, 1.0, 0.0, 0.0, 0.0, 1.0, 1.0, 0.0, 0.0, 0.2615858569386559, 0.3988564431184543, 0.0, 1.0, 1.0, 1.0, 0.0, 1.0, 0.0, 0.0, 0.0, 1.0, 1.0, 1.0, 0.0, 1.0, 1.0, 1.0, 0.0, 0.8192329561411309, 1.0, 0.7247175092721039, 0.0, 0.19971637923520363, 1.0, 1.0, 1.0, 1.0, 0.4993838614158068, 1.0, 0.8895630090561802, 0.11701496981886066, 1.0, 0.0, 0.0, 0.7115429949476717, 0.14892961816352793, 0.00010993329522512761, 0.0, 1.0]
GUROBI solution time: 6.422166109085083

